c
c
c
c
c
10 55
0 0 -1
0 1 10
0 2 8
0 3 26
0 4 22
0 5 21
0 6 25
0 7 25
0 8 26
0 9 10
1 1 -1
1 2 28
1 3 27
1 4 4
1 5 5
1 6 25
1 7 11
1 8 30
1 9 21
2 2 -1
2 3 3
2 4 23
2 5 24
2 6 11
2 7 30
2 8 30
2 9 16
3 3 -1
3 4 30
3 5 28
3 6 20
3 7 18
3 8 15
3 9 7
4 4 -1
4 5 27
4 6 15
4 7 4
4 8 16
4 9 8
5 5 -1
5 6 30
5 7 15
5 8 23
5 9 6
6 6 -1
6 7 19
6 8 2
6 9 11
7 7 -1
7 8 8
7 9 26
8 8 -1
8 9 24
9 9 -1
